\ Model Model5_copy
\ LP format - for model browsing. Use MPS format to capture full model detail.
Minimize
 
Subject To
 assignment_job0_stage2_constraint: y[j0_l2_i2] = 1
 start_time_job0_stage2_constraint5: - 3 y[j0_l2_i2] - s[j0_l2_i2]
   + s[j0_l3_i1] >= 0
 R21: - 2 y[j0_l3_i1] + s[j0_l2_i2] - s[j0_l3_i1] >= 0
Bounds
 s[j0_l2_i2] free
 s[j0_l3_i1] free
Binaries
 y[j0_l2_i2] y[j0_l3_i1]
Generals
 s[j0_l2_i2] s[j0_l3_i1]
End
